matrix = [|
  13, 14, 3, 11, 4, 7, 20, 10, 33, 8, 17, 0, 0, 0, 0, 0, 0, 0, 0, 0, 0, 0, 0, 0, 0, 0, 0, 0, 0, 0, 0, 0, 0, 0, 0 |
  18, 19, 29, 24, 9, 20, 25, 23, 0, 0, 0, 0, 0, 0, 0, 0, 0, 0, 0, 0, 0, 0, 0, 0, 0, 0, 0, 0, 0, 0, 0, 0, 0, 0, 0 |
  26, 29, 11, 16, 34, 22, 15, 21, 8, 24, 33, 0, 0, 0, 0, 0, 0, 0, 0, 0, 0, 0, 0, 0, 0, 0, 0, 0, 0, 0, 0, 0, 0, 0, 0 |
  29, 19, 30, 26, 11, 20, 4, 16, 23, 27, 10, 24, 34, 22, 0, 0, 0, 0, 0, 0, 0, 0, 0, 0, 0, 0, 0, 0, 0, 0, 0, 0, 0, 0, 0 |
  9, 20, 29, 2, 24, 10, 6, 31, 3, 22, 0, 0, 0, 0, 0, 0, 0, 0, 0, 0, 0, 0, 0, 0, 0, 0, 0, 0, 0, 0, 0, 0, 0, 0, 0 |
  34, 25, 3, 6, 13, 12, 15, 22, 1, 23, 27, 29, 20, 4, 9, 0, 0, 0, 0, 0, 0, 0, 0, 0, 0, 0, 0, 0, 0, 0, 0, 0, 0, 0, 0 |
  32, 29, 14, 7, 6, 16, 27, 5, 24, 22, 25, 33, 18, 1, 21, 9, 3, 31, 17, 0, 0, 0, 0, 0, 0, 0, 0, 0, 0, 0, 0, 0, 0, 0, 0 |
  32, 16, 13, 17, 22, 8, 31, 12, 27, 2, 10, 0, 0, 0, 0, 0, 0, 0, 0, 0, 0, 0, 0, 0, 0, 0, 0, 0, 0, 0, 0, 0, 0, 0, 0 |
  29, 18, 5, 16, 23, 11, 8, 33, 31, 22, 19, 3, 6, 34, 1, 0, 0, 0, 0, 0, 0, 0, 0, 0, 0, 0, 0, 0, 0, 0, 0, 0, 0, 0, 0 |
  8, 13, 31, 23, 9, 32, 16, 11, 12, 10, 27, 33, 24, 21, 0, 0, 0, 0, 0, 0, 0, 0, 0, 0, 0, 0, 0, 0, 0, 0, 0, 0, 0, 0, 0 |
  15, 8, 10, 13, 2, 19, 30, 12, 6, 5, 29, 20, 27, 17, 11, 4, 25, 3, 24, 0, 0, 0, 0, 0, 0, 0, 0, 0, 0, 0, 0, 0, 0, 0, 0 |
  19, 17, 6, 11, 9, 32, 2, 12, 13, 24, 1, 20, 22, 27, 0, 0, 0, 0, 0, 0, 0, 0, 0, 0, 0, 0, 0, 0, 0, 0, 0, 0, 0, 0, 0 |
  20, 10, 3, 9, 26, 28, 5, 16, 31, 24, 2, 11, 17, 21, 14, 19, 27, 23, 0, 0, 0, 0, 0, 0, 0, 0, 0, 0, 0, 0, 0, 0, 0, 0, 0 |
  24, 17, 8, 27, 33, 31, 1, 0, 0, 0, 0, 0, 0, 0, 0, 0, 0, 0, 0, 0, 0, 0, 0, 0, 0, 0, 0, 0, 0, 0, 0, 0, 0, 0, 0 |
  31, 11, 29, 22, 18, 12, 20, 25, 32, 4, 5, 8, 7, 34, 9, 19, 28, 15, 30, 0, 0, 0, 0, 0, 0, 0, 0, 0, 0, 0, 0, 0, 0, 0, 0 |
  19, 32, 15, 11, 10, 1, 24, 6, 13, 14, 26, 29, 25, 34, 23, 22, 0, 0, 0, 0, 0, 0, 0, 0, 0, 0, 0, 0, 0, 0, 0, 0, 0, 0, 0 |
  26, 20, 30, 23, 10, 33, 4, 15, 17, 12, 24, 22, 18, 32, 34, 6, 3, 11, 19, 13, 0, 0, 0, 0, 0, 0, 0, 0, 0, 0, 0, 0, 0, 0, 0 |
  17, 26, 29, 31, 20, 34, 30, 0, 0, 0, 0, 0, 0, 0, 0, 0, 0, 0, 0, 0, 0, 0, 0, 0, 0, 0, 0, 0, 0, 0, 0, 0, 0, 0, 0 |
  4, 9, 29, 1, 6, 20, 12, 25, 34, 22, 27, 24, 26, 16, 10, 33, 0, 0, 0, 0, 0, 0, 0, 0, 0, 0, 0, 0, 0, 0, 0, 0, 0, 0, 0 |
  26, 2, 34, 13, 18, 4, 16, 27, 1, 31, 15, 9, 24, 3, 0, 0, 0, 0, 0, 0, 0, 0, 0, 0, 0, 0, 0, 0, 0, 0, 0, 0, 0, 0, 0 |
  32, 24, 1, 13, 14, 2, 35, 11, 7, 19, 15, 0, 0, 0, 0, 0, 0, 0, 0, 0, 0, 0, 0, 0, 0, 0, 0, 0, 0, 0, 0, 0, 0, 0, 0 |
  25, 32, 33, 23, 10, 27, 6, 12, 4, 24, 26, 13, 19, 3, 18, 1, 31, 15, 29, 0, 0, 0, 0, 0, 0, 0, 0, 0, 0, 0, 0, 0, 0, 0, 0 |
  31, 33, 29, 19, 11, 32, 13, 26, 22, 34, 8, 25, 5, 9, 15, 20, 24, 17, 18, 30, 0, 0, 0, 0, 0, 0, 0, 0, 0, 0, 0, 0, 0, 0, 0 |
  18, 9, 34, 11, 8, 30, 32, 1, 33, 27, 19, 0, 0, 0, 0, 0, 0, 0, 0, 0, 0, 0, 0, 0, 0, 0, 0, 0, 0, 0, 0, 0, 0, 0, 0 |
  6, 26, 29, 34, 18, 32, 11, 20, 19, 23, 25, 33, 17, 22, 27, 13, 5, 16, 15, 35, 0, 0, 0, 0, 0, 0, 0, 0, 0, 0, 0, 0, 0, 0, 0 |
  2, 24, 10, 17, 16, 29, 9, 1, 22, 0, 0, 0, 0, 0, 0, 0, 0, 0, 0, 0, 0, 0, 0, 0, 0, 0, 0, 0, 0, 0, 0, 0, 0, 0, 0 |
  29, 35, 30, 22, 5, 24, 13, 10, 19, 20, 6, 2, 0, 0, 0, 0, 0, 0, 0, 0, 0, 0, 0, 0, 0, 0, 0, 0, 0, 0, 0, 0, 0, 0, 0 |
  3, 27, 2, 29, 13, 12, 32, 6, 23, 34, 26, 33, 4, 9, 11, 18, 19, 20, 31, 10, 0, 0, 0, 0, 0, 0, 0, 0, 0, 0, 0, 0, 0, 0, 0 |
  34, 33, 9, 2, 32, 28, 20, 31, 30, 24, 13, 15, 14, 10, 17, 29, 4, 12, 27, 0, 0, 0, 0, 0, 0, 0, 0, 0, 0, 0, 0, 0, 0, 0, 0 |
  19, 3, 26, 32, 24, 22, 34, 0, 0, 0, 0, 0, 0, 0, 0, 0, 0, 0, 0, 0, 0, 0, 0, 0, 0, 0, 0, 0, 0, 0, 0, 0, 0, 0, 0 |
  24, 35, 6, 5, 26, 23, 7, 1, 21, 2, 25, 9, 3, 19, 29, 30, 0, 0, 0, 0, 0, 0, 0, 0, 0, 0, 0, 0, 0, 0, 0, 0, 0, 0, 0 |
  4, 6, 8, 26, 16, 19, 11, 12, 33, 3, 0, 0, 0, 0, 0, 0, 0, 0, 0, 0, 0, 0, 0, 0, 0, 0, 0, 0, 0, 0, 0, 0, 0, 0, 0 |
  12, 8, 15, 5, 20, 32, 9, 0, 0, 0, 0, 0, 0, 0, 0, 0, 0, 0, 0, 0, 0, 0, 0, 0, 0, 0, 0, 0, 0, 0, 0, 0, 0, 0, 0 |
  23, 34, 32, 16, 24, 30, 25, 9, 11, 15, 20, 33, 8, 3, 17, 31, 13, 27, 0, 0, 0, 0, 0, 0, 0, 0, 0, 0, 0, 0, 0, 0, 0, 0, 0 |
  15, 9, 25, 11, 8, 17, 22, 0, 0, 0, 0, 0, 0, 0, 0, 0, 0, 0, 0, 0, 0, 0, 0, 0, 0, 0, 0, 0, 0, 0, 0, 0, 0, 0, 0 |
  24, 32, 19, 17, 13, 31, 29, 10, 27, 20, 25, 1, 4, 11, 2, 18, 3, 0, 0, 0, 0, 0, 0, 0, 0, 0, 0, 0, 0, 0, 0, 0, 0, 0, 0 |
  8, 27, 29, 34, 26, 10, 17, 33, 23, 5, 4, 0, 0, 0, 0, 0, 0, 0, 0, 0, 0, 0, 0, 0, 0, 0, 0, 0, 0, 0, 0, 0, 0, 0, 0 |
  8, 28, 25, 21, 6, 34, 33, 29, 23, 24, 2, 32, 22, 31, 16, 3, 0, 0, 0, 0, 0, 0, 0, 0, 0, 0, 0, 0, 0, 0, 0, 0, 0, 0, 0 |
  27, 6, 1, 16, 23, 33, 19, 26, 8, 31, 0, 0, 0, 0, 0, 0, 0, 0, 0, 0, 0, 0, 0, 0, 0, 0, 0, 0, 0, 0, 0, 0, 0, 0, 0 |
  19, 23, 5, 20, 31, 29, 2, 8, 32, 13, 34, 11, 4, 22, 0, 0, 0, 0, 0, 0, 0, 0, 0, 0, 0, 0, 0, 0, 0, 0, 0, 0, 0, 0, 0 |
|];
